NAME srl_ilp
* Max problem is converted into Min one
ROWS
 N  OBJ
 L  constraint1_00
 L  constraint1_10
 L  constraint1_11
 L  constraint1_12
 L  constraint1_20
 L  constraint1_21
 L  constraint1_22
 L  constraint1_30
 L  constraint1_31
 L  constraint1_40
 L  constraint1_41
 L  constraint1_42
 L  constraint1_50
 L  constraint1_51
 L  constraint1_52
 L  constraint2_00
 L  constraint2_01
 L  constraint2_02
 L  constraint2_03
 L  constraint2_10
 L  constraint2_11
 L  constraint2_12
 L  constraint2_13
 L  constraint2_20
 L  constraint2_21
 L  constraint2_22
 L  constraint2_23
 L  constraint2_30
 L  constraint2_31
 L  constraint2_32
 L  constraint2_33
 L  constraint2_40
 L  constraint2_41
 L  constraint2_42
 L  constraint2_43
 L  constraint2_50
 L  constraint2_51
 L  constraint2_52
 L  constraint2_53
COLUMNS
    MARKER    'MARKER'                 'INTORG'
    Z_000     OBJ       -0.05
    Z_000     constraint1_00  1
    Z_000     constraint2_00  1
    Z_001     OBJ       -0.05
    Z_001     constraint1_00  1
    Z_001     constraint2_01  1
    Z_002     OBJ       -0.4
    Z_002     constraint1_00  1
    Z_002     constraint2_02  1
    Z_003     OBJ       -0.05
    Z_003     constraint1_00  1
    Z_003     constraint2_03  1
    Z_100     OBJ       -0.25
    Z_100     constraint1_10  1
    Z_100     constraint2_10  1
    Z_101     OBJ       -0.1
    Z_101     constraint1_10  1
    Z_101     constraint2_11  1
    Z_102     OBJ       -0.35
    Z_102     constraint1_10  1
    Z_102     constraint2_12  1
    Z_103     OBJ       -0.05
    Z_103     constraint1_10  1
    Z_103     constraint2_13  1
    Z_110     OBJ       -0.25
    Z_110     constraint1_11  1
    Z_110     constraint2_10  1
    Z_111     OBJ       -0.1
    Z_111     constraint1_11  1
    Z_111     constraint2_11  1
    Z_112     OBJ       -0.05
    Z_112     constraint1_11  1
    Z_112     constraint2_12  1
    Z_113     OBJ       -0.35
    Z_113     constraint1_11  1
    Z_113     constraint2_13  1
    Z_120     OBJ       -0.4
    Z_120     constraint1_12  1
    Z_120     constraint2_10  1
    Z_121     OBJ       -0.1
    Z_121     constraint1_12  1
    Z_121     constraint2_11  1
    Z_122     OBJ       -0.05
    Z_122     constraint1_12  1
    Z_122     constraint2_12  1
    Z_123     OBJ       -0.15
    Z_123     constraint1_12  1
    Z_123     constraint2_13  1
    Z_200     OBJ       -0.35
    Z_200     constraint1_20  1
    Z_200     constraint2_20  1
    Z_201     OBJ       -0.1
    Z_201     constraint1_20  1
    Z_201     constraint2_21  1
    Z_202     OBJ       -0.05
    Z_202     constraint1_20  1
    Z_202     constraint2_22  1
    Z_203     OBJ       -0.25
    Z_203     constraint1_20  1
    Z_203     constraint2_23  1
    Z_210     OBJ       -0.2
    Z_210     constraint1_21  1
    Z_210     constraint2_20  1
    Z_211     OBJ       -0.1
    Z_211     constraint1_21  1
    Z_211     constraint2_21  1
    Z_212     OBJ       -0.35
    Z_212     constraint1_21  1
    Z_212     constraint2_22  1
    Z_213     OBJ       -0.05
    Z_213     constraint1_21  1
    Z_213     constraint2_23  1
    Z_220     OBJ       -0.05
    Z_220     constraint1_22  1
    Z_220     constraint2_20  1
    Z_221     OBJ       -0.1
    Z_221     constraint1_22  1
    Z_221     constraint2_21  1
    Z_222     OBJ       -0.15
    Z_222     constraint1_22  1
    Z_222     constraint2_22  1
    Z_223     OBJ       -0.4
    Z_223     constraint1_22  1
    Z_223     constraint2_23  1
    Z_300     OBJ       -0.05
    Z_300     constraint1_30  1
    Z_300     constraint2_30  1
    Z_301     OBJ       -0.15
    Z_301     constraint1_30  1
    Z_301     constraint2_31  1
    Z_302     OBJ       -0.35
    Z_302     constraint1_30  1
    Z_302     constraint2_32  1
    Z_303     OBJ       -0.2
    Z_303     constraint1_30  1
    Z_303     constraint2_33  1
    Z_310     OBJ       -0.15
    Z_310     constraint1_31  1
    Z_310     constraint2_30  1
    Z_311     OBJ       -0.1
    Z_311     constraint1_31  1
    Z_311     constraint2_31  1
    Z_312     OBJ       -0.05
    Z_312     constraint1_31  1
    Z_312     constraint2_32  1
    Z_313     OBJ       -0.35
    Z_313     constraint1_31  1
    Z_313     constraint2_33  1
    Z_400     OBJ       -0.05
    Z_400     constraint1_40  1
    Z_400     constraint2_40  1
    Z_401     OBJ       -0.1
    Z_401     constraint1_40  1
    Z_401     constraint2_41  1
    Z_402     OBJ       -0.35
    Z_402     constraint1_40  1
    Z_402     constraint2_42  1
    Z_403     OBJ       -0.05
    Z_403     constraint1_40  1
    Z_403     constraint2_43  1
    Z_410     OBJ       -0.25
    Z_410     constraint1_41  1
    Z_410     constraint2_40  1
    Z_411     OBJ       -0.15
    Z_411     constraint1_41  1
    Z_411     constraint2_41  1
    Z_412     OBJ       -0.05
    Z_412     constraint1_41  1
    Z_412     constraint2_42  1
    Z_413     OBJ       -0.4
    Z_413     constraint1_41  1
    Z_413     constraint2_43  1
    Z_420     OBJ       -0.35
    Z_420     constraint1_42  1
    Z_420     constraint2_40  1
    Z_421     OBJ       -0.1
    Z_421     constraint1_42  1
    Z_421     constraint2_41  1
    Z_422     OBJ       -0.05
    Z_422     constraint1_42  1
    Z_422     constraint2_42  1
    Z_423     OBJ       -0.1
    Z_423     constraint1_42  1
    Z_423     constraint2_43  1
    Z_500     constraint1_50  1
    Z_500     constraint2_50  1
    Z_501     OBJ       -0.1
    Z_501     constraint1_50  1
    Z_501     constraint2_51  1
    Z_502     OBJ       -0.4
    Z_502     constraint1_50  1
    Z_502     constraint2_52  1
    Z_503     OBJ       -0.15
    Z_503     constraint1_50  1
    Z_503     constraint2_53  1
    Z_510     OBJ       -0.25
    Z_510     constraint1_51  1
    Z_510     constraint2_50  1
    Z_511     OBJ       -0.1
    Z_511     constraint1_51  1
    Z_511     constraint2_51  1
    Z_512     OBJ       -0.05
    Z_512     constraint1_51  1
    Z_512     constraint2_52  1
    Z_513     OBJ       -0.35
    Z_513     constraint1_51  1
    Z_513     constraint2_53  1
    Z_520     OBJ       -0.25
    Z_520     constraint1_52  1
    Z_520     constraint2_50  1
    Z_521     OBJ       -0.1
    Z_521     constraint1_52  1
    Z_521     constraint2_51  1
    Z_522     OBJ       -0.05
    Z_522     constraint1_52  1
    Z_522     constraint2_52  1
    Z_523     OBJ       -0.35
    Z_523     constraint1_52  1
    Z_523     constraint2_53  1
    MARKER    'MARKER'                 'INTEND'
RHS
    RHS1      constraint1_00  1
    RHS1      constraint1_10  1
    RHS1      constraint1_11  1
    RHS1      constraint1_12  1
    RHS1      constraint1_20  1
    RHS1      constraint1_21  1
    RHS1      constraint1_22  1
    RHS1      constraint1_30  1
    RHS1      constraint1_31  1
    RHS1      constraint1_40  1
    RHS1      constraint1_41  1
    RHS1      constraint1_42  1
    RHS1      constraint1_50  1
    RHS1      constraint1_51  1
    RHS1      constraint1_52  1
    RHS1      constraint2_00  1
    RHS1      constraint2_01  1
    RHS1      constraint2_02  1
    RHS1      constraint2_03  1
    RHS1      constraint2_10  1
    RHS1      constraint2_11  1
    RHS1      constraint2_12  1
    RHS1      constraint2_13  1
    RHS1      constraint2_20  1
    RHS1      constraint2_21  1
    RHS1      constraint2_22  1
    RHS1      constraint2_23  1
    RHS1      constraint2_30  1
    RHS1      constraint2_31  1
    RHS1      constraint2_32  1
    RHS1      constraint2_33  1
    RHS1      constraint2_40  1
    RHS1      constraint2_41  1
    RHS1      constraint2_42  1
    RHS1      constraint2_43  1
    RHS1      constraint2_50  1
    RHS1      constraint2_51  1
    RHS1      constraint2_52  1
    RHS1      constraint2_53  1
BOUNDS
 UP BND1      Z_000     1
 UP BND1      Z_001     1
 UP BND1      Z_002     1
 UP BND1      Z_003     1
 UP BND1      Z_100     1
 UP BND1      Z_101     1
 UP BND1      Z_102     1
 UP BND1      Z_103     1
 UP BND1      Z_110     1
 UP BND1      Z_111     1
 UP BND1      Z_112     1
 UP BND1      Z_113     1
 UP BND1      Z_120     1
 UP BND1      Z_121     1
 UP BND1      Z_122     1
 UP BND1      Z_123     1
 UP BND1      Z_200     1
 UP BND1      Z_201     1
 UP BND1      Z_202     1
 UP BND1      Z_203     1
 UP BND1      Z_210     1
 UP BND1      Z_211     1
 UP BND1      Z_212     1
 UP BND1      Z_213     1
 UP BND1      Z_220     1
 UP BND1      Z_221     1
 UP BND1      Z_222     1
 UP BND1      Z_223     1
 UP BND1      Z_300     1
 UP BND1      Z_301     1
 UP BND1      Z_302     1
 UP BND1      Z_303     1
 UP BND1      Z_310     1
 UP BND1      Z_311     1
 UP BND1      Z_312     1
 UP BND1      Z_313     1
 UP BND1      Z_400     1
 UP BND1      Z_401     1
 UP BND1      Z_402     1
 UP BND1      Z_403     1
 UP BND1      Z_410     1
 UP BND1      Z_411     1
 UP BND1      Z_412     1
 UP BND1      Z_413     1
 UP BND1      Z_420     1
 UP BND1      Z_421     1
 UP BND1      Z_422     1
 UP BND1      Z_423     1
 UP BND1      Z_500     1
 UP BND1      Z_501     1
 UP BND1      Z_502     1
 UP BND1      Z_503     1
 UP BND1      Z_510     1
 UP BND1      Z_511     1
 UP BND1      Z_512     1
 UP BND1      Z_513     1
 UP BND1      Z_520     1
 UP BND1      Z_521     1
 UP BND1      Z_522     1
 UP BND1      Z_523     1
QUADOBJ
    Z_000     Z_100     -8.6683553457260132e-01
    Z_000     Z_110     -9.9562133046107337e-01
    Z_000     Z_120     -9.7061873307391855e-01
    Z_000     Z_200     -9.3039010968329572e-01
    Z_000     Z_210     -5.4470646381378174e-01
    Z_000     Z_220     -9.6275499645404183e-01
    Z_000     Z_300     -6.2204992771148682e-01
    Z_000     Z_310     -6.3630485534667969e-01
    Z_000     Z_400     -6.2204992771148682e-01
    Z_000     Z_410     -6.3630485534667969e-01
    Z_000     Z_420     -1.0712803245840901e+00
    Z_000     Z_500     -8.6683553457260132e-01
    Z_000     Z_510     -9.1275048255920410e-01
    Z_000     Z_520     -1.0741725297651468e+00
    Z_001     Z_101     -8.6683553457260132e-01
    Z_001     Z_111     -9.9562133046107337e-01
    Z_001     Z_121     -9.7061873307391855e-01
    Z_001     Z_201     -9.3039010968329572e-01
    Z_001     Z_211     -5.4470646381378174e-01
    Z_001     Z_221     -9.6275499645404183e-01
    Z_001     Z_301     -6.2204992771148682e-01
    Z_001     Z_311     -6.3630485534667969e-01
    Z_001     Z_401     -6.2204992771148682e-01
    Z_001     Z_411     -6.3630485534667969e-01
    Z_001     Z_421     -1.0712803245840901e+00
    Z_001     Z_501     -8.6683553457260132e-01
    Z_001     Z_511     -9.1275048255920410e-01
    Z_001     Z_521     -1.0741725297651468e+00
    Z_002     Z_102     -8.6683553457260132e-01
    Z_002     Z_112     -9.9562133046107337e-01
    Z_002     Z_122     -9.7061873307391855e-01
    Z_002     Z_202     -9.3039010968329572e-01
    Z_002     Z_212     -5.4470646381378174e-01
    Z_002     Z_222     -9.6275499645404183e-01
    Z_002     Z_302     -6.2204992771148682e-01
    Z_002     Z_312     -6.3630485534667969e-01
    Z_002     Z_402     -6.2204992771148682e-01
    Z_002     Z_412     -6.3630485534667969e-01
    Z_002     Z_422     -1.0712803245840901e+00
    Z_002     Z_502     -8.6683553457260132e-01
    Z_002     Z_512     -9.1275048255920410e-01
    Z_002     Z_522     -1.0741725297651468e+00
    Z_003     Z_103     -8.6683553457260132e-01
    Z_003     Z_113     -9.9562133046107337e-01
    Z_003     Z_123     -9.7061873307391855e-01
    Z_003     Z_203     -9.3039010968329572e-01
    Z_003     Z_213     -5.4470646381378174e-01
    Z_003     Z_223     -9.6275499645404183e-01
    Z_003     Z_303     -6.2204992771148682e-01
    Z_003     Z_313     -6.3630485534667969e-01
    Z_003     Z_403     -6.2204992771148682e-01
    Z_003     Z_413     -6.3630485534667969e-01
    Z_003     Z_423     -1.0712803245840901e+00
    Z_003     Z_503     -8.6683553457260132e-01
    Z_003     Z_513     -9.1275048255920410e-01
    Z_003     Z_523     -1.0741725297651468e+00
    Z_100     Z_200     -8.9643595327140191e-01
    Z_100     Z_210     -7.8452521562576294e-01
    Z_100     Z_220     -1.0159814530297784e+00
    Z_100     Z_300     -6.7964124679565430e-01
    Z_100     Z_310     -8.9973002672195435e-01
    Z_100     Z_400     -6.7964124679565430e-01
    Z_100     Z_410     -8.9973002672195435e-01
    Z_100     Z_420     -1.0360677285190054e+00
    Z_100     Z_500     1.1920928955078125e-07
    Z_100     Z_510     -9.2113697528839111e-01
    Z_100     Z_520     -8.8362677137152656e-01
    Z_101     Z_201     -8.9643595327140191e-01
    Z_101     Z_211     -7.8452521562576294e-01
    Z_101     Z_221     -1.0159814530297784e+00
    Z_101     Z_301     -6.7964124679565430e-01
    Z_101     Z_311     -8.9973002672195435e-01
    Z_101     Z_401     -6.7964124679565430e-01
    Z_101     Z_411     -8.9973002672195435e-01
    Z_101     Z_421     -1.0360677285190054e+00
    Z_101     Z_501     1.1920928955078125e-07
    Z_101     Z_511     -9.2113697528839111e-01
    Z_101     Z_521     -8.8362677137152656e-01
    Z_102     Z_202     -8.9643595327140191e-01
    Z_102     Z_212     -7.8452521562576294e-01
    Z_102     Z_222     -1.0159814530297784e+00
    Z_102     Z_302     -6.7964124679565430e-01
    Z_102     Z_312     -8.9973002672195435e-01
    Z_102     Z_402     -6.7964124679565430e-01
    Z_102     Z_412     -8.9973002672195435e-01
    Z_102     Z_422     -1.0360677285190054e+00
    Z_102     Z_502     1.1920928955078125e-07
    Z_102     Z_512     -9.2113697528839111e-01
    Z_102     Z_522     -8.8362677137152656e-01
    Z_103     Z_203     -8.9643595327140191e-01
    Z_103     Z_213     -7.8452521562576294e-01
    Z_103     Z_223     -1.0159814530297784e+00
    Z_103     Z_303     -6.7964124679565430e-01
    Z_103     Z_313     -8.9973002672195435e-01
    Z_103     Z_403     -6.7964124679565430e-01
    Z_103     Z_413     -8.9973002672195435e-01
    Z_103     Z_423     -1.0360677285190054e+00
    Z_103     Z_503     1.1920928955078125e-07
    Z_103     Z_513     -9.2113697528839111e-01
    Z_103     Z_523     -8.8362677137152656e-01
    Z_110     Z_200     -9.8154421991189278e-01
    Z_110     Z_210     -1.0231843058241366e+00
    Z_110     Z_220     -1.0230290364943893e+00
    Z_110     Z_300     -9.8346379622369506e-01
    Z_110     Z_310     -1.1237315600599549e+00
    Z_110     Z_400     -9.8346379622369506e-01
    Z_110     Z_410     -1.1237315600599549e+00
    Z_110     Z_420     -1.0498745993399814e+00
    Z_110     Z_500     -8.7660229802494460e-01
    Z_110     Z_510     -1.0188236457975108e+00
    Z_110     Z_520     -9.3071362901107180e-01
    Z_111     Z_201     -9.8154421991189278e-01
    Z_111     Z_211     -1.0231843058241366e+00
    Z_111     Z_221     -1.0230290364943893e+00
    Z_111     Z_301     -9.8346379622369506e-01
    Z_111     Z_311     -1.1237315600599549e+00
    Z_111     Z_401     -9.8346379622369506e-01
    Z_111     Z_411     -1.1237315600599549e+00
    Z_111     Z_421     -1.0498745993399814e+00
    Z_111     Z_501     -8.7660229802494460e-01
    Z_111     Z_511     -1.0188236457975108e+00
    Z_111     Z_521     -9.3071362901107180e-01
    Z_112     Z_202     -9.8154421991189278e-01
    Z_112     Z_212     -1.0231843058241366e+00
    Z_112     Z_222     -1.0230290364943893e+00
    Z_112     Z_302     -9.8346379622369506e-01
    Z_112     Z_312     -1.1237315600599549e+00
    Z_112     Z_402     -9.8346379622369506e-01
    Z_112     Z_412     -1.1237315600599549e+00
    Z_112     Z_422     -1.0498745993399814e+00
    Z_112     Z_502     -8.7660229802494460e-01
    Z_112     Z_512     -1.0188236457975108e+00
    Z_112     Z_522     -9.3071362901107180e-01
    Z_113     Z_203     -9.8154421991189278e-01
    Z_113     Z_213     -1.0231843058241366e+00
    Z_113     Z_223     -1.0230290364943893e+00
    Z_113     Z_303     -9.8346379622369506e-01
    Z_113     Z_313     -1.1237315600599549e+00
    Z_113     Z_403     -9.8346379622369506e-01
    Z_113     Z_413     -1.1237315600599549e+00
    Z_113     Z_423     -1.0498745993399814e+00
    Z_113     Z_503     -8.7660229802494460e-01
    Z_113     Z_513     -1.0188236457975108e+00
    Z_113     Z_523     -9.3071362901107180e-01
    Z_120     Z_200     -1.0542909504859701e+00
    Z_120     Z_210     -9.4846561368345794e-01
    Z_120     Z_220     -1.0335532252821096e+00
    Z_120     Z_300     -1.0093803639071881e+00
    Z_120     Z_310     -9.4614612512505403e-01
    Z_120     Z_400     -1.0093803639071881e+00
    Z_120     Z_410     -9.4614612512505403e-01
    Z_120     Z_420     -9.4847749776883872e-01
    Z_120     Z_500     -1.0454851811052746e+00
    Z_120     Z_510     -9.9746086560240388e-01
    Z_120     Z_520     -9.5328864962772020e-01
    Z_121     Z_201     -1.0542909504859701e+00
    Z_121     Z_211     -9.4846561368345794e-01
    Z_121     Z_221     -1.0335532252821096e+00
    Z_121     Z_301     -1.0093803639071881e+00
    Z_121     Z_311     -9.4614612512505403e-01
    Z_121     Z_401     -1.0093803639071881e+00
    Z_121     Z_411     -9.4614612512505403e-01
    Z_121     Z_421     -9.4847749776883872e-01
    Z_121     Z_501     -1.0454851811052746e+00
    Z_121     Z_511     -9.9746086560240388e-01
    Z_121     Z_521     -9.5328864962772020e-01
    Z_122     Z_202     -1.0542909504859701e+00
    Z_122     Z_212     -9.4846561368345794e-01
    Z_122     Z_222     -1.0335532252821096e+00
    Z_122     Z_302     -1.0093803639071881e+00
    Z_122     Z_312     -9.4614612512505403e-01
    Z_122     Z_402     -1.0093803639071881e+00
    Z_122     Z_412     -9.4614612512505403e-01
    Z_122     Z_422     -9.4847749776883872e-01
    Z_122     Z_502     -1.0454851811052746e+00
    Z_122     Z_512     -9.9746086560240388e-01
    Z_122     Z_522     -9.5328864962772020e-01
    Z_123     Z_203     -1.0542909504859701e+00
    Z_123     Z_213     -9.4846561368345794e-01
    Z_123     Z_223     -1.0335532252821096e+00
    Z_123     Z_303     -1.0093803639071881e+00
    Z_123     Z_313     -9.4614612512505403e-01
    Z_123     Z_403     -1.0093803639071881e+00
    Z_123     Z_413     -9.4614612512505403e-01
    Z_123     Z_423     -9.4847749776883872e-01
    Z_123     Z_503     -1.0454851811052746e+00
    Z_123     Z_513     -9.9746086560240388e-01
    Z_123     Z_523     -9.5328864962772020e-01
    Z_200     Z_300     -9.6268447307629101e-01
    Z_200     Z_310     -9.5644026677670635e-01
    Z_200     Z_400     -9.6268447307629101e-01
    Z_200     Z_410     -9.5644026677670635e-01
    Z_200     Z_420     -1.1018730837768616e+00
    Z_200     Z_500     -8.9643595327140191e-01
    Z_200     Z_510     -1.0767791331436101e+00
    Z_200     Z_520     -1.0533393653529894e+00
    Z_201     Z_301     -9.6268447307629101e-01
    Z_201     Z_311     -9.5644026677670635e-01
    Z_201     Z_401     -9.6268447307629101e-01
    Z_201     Z_411     -9.5644026677670635e-01
    Z_201     Z_421     -1.1018730837768616e+00
    Z_201     Z_501     -8.9643595327140191e-01
    Z_201     Z_511     -1.0767791331436101e+00
    Z_201     Z_521     -1.0533393653529894e+00
    Z_202     Z_302     -9.6268447307629101e-01
    Z_202     Z_312     -9.5644026677670635e-01
    Z_202     Z_402     -9.6268447307629101e-01
    Z_202     Z_412     -9.5644026677670635e-01
    Z_202     Z_422     -1.1018730837768616e+00
    Z_202     Z_502     -8.9643595327140191e-01
    Z_202     Z_512     -1.0767791331436101e+00
    Z_202     Z_522     -1.0533393653529894e+00
    Z_203     Z_303     -9.6268447307629101e-01
    Z_203     Z_313     -9.5644026677670635e-01
    Z_203     Z_403     -9.6268447307629101e-01
    Z_203     Z_413     -9.5644026677670635e-01
    Z_203     Z_423     -1.1018730837768616e+00
    Z_203     Z_503     -8.9643595327140191e-01
    Z_203     Z_513     -1.0767791331436101e+00
    Z_203     Z_523     -1.0533393653529894e+00
    Z_210     Z_300     -5.1435184478759766e-01
    Z_210     Z_310     -8.7265861034393311e-01
    Z_210     Z_400     -5.1435184478759766e-01
    Z_210     Z_410     -8.7265861034393311e-01
    Z_210     Z_420     -1.1067395248767926e+00
    Z_210     Z_500     -7.8452521562576294e-01
    Z_210     Z_510     -9.2764598131179810e-01
    Z_210     Z_520     -9.8599217067202227e-01
    Z_211     Z_301     -5.1435184478759766e-01
    Z_211     Z_311     -8.7265861034393311e-01
    Z_211     Z_401     -5.1435184478759766e-01
    Z_211     Z_411     -8.7265861034393311e-01
    Z_211     Z_421     -1.1067395248767926e+00
    Z_211     Z_501     -7.8452521562576294e-01
    Z_211     Z_511     -9.2764598131179810e-01
    Z_211     Z_521     -9.8599217067202227e-01
    Z_212     Z_302     -5.1435184478759766e-01
    Z_212     Z_312     -8.7265861034393311e-01
    Z_212     Z_402     -5.1435184478759766e-01
    Z_212     Z_412     -8.7265861034393311e-01
    Z_212     Z_422     -1.1067395248767926e+00
    Z_212     Z_502     -7.8452521562576294e-01
    Z_212     Z_512     -9.2764598131179810e-01
    Z_212     Z_522     -9.8599217067202227e-01
    Z_213     Z_303     -5.1435184478759766e-01
    Z_213     Z_313     -8.7265861034393311e-01
    Z_213     Z_403     -5.1435184478759766e-01
    Z_213     Z_413     -8.7265861034393311e-01
    Z_213     Z_423     -1.1067395248767926e+00
    Z_213     Z_503     -7.8452521562576294e-01
    Z_213     Z_513     -9.2764598131179810e-01
    Z_213     Z_523     -9.8599217067202227e-01
    Z_220     Z_300     -8.7984079483516919e-01
    Z_220     Z_310     -8.6348112156976886e-01
    Z_220     Z_400     -8.7984079483516919e-01
    Z_220     Z_410     -8.6348112156976886e-01
    Z_220     Z_420     -9.8272970348459976e-01
    Z_220     Z_500     -1.0159814530297784e+00
    Z_220     Z_510     -1.0573422963154744e+00
    Z_220     Z_520     -1.0834836218322921e+00
    Z_221     Z_301     -8.7984079483516919e-01
    Z_221     Z_311     -8.6348112156976886e-01
    Z_221     Z_401     -8.7984079483516919e-01
    Z_221     Z_411     -8.6348112156976886e-01
    Z_221     Z_421     -9.8272970348459976e-01
    Z_221     Z_501     -1.0159814530297784e+00
    Z_221     Z_511     -1.0573422963154744e+00
    Z_221     Z_521     -1.0834836218322921e+00
    Z_222     Z_302     -8.7984079483516919e-01
    Z_222     Z_312     -8.6348112156976886e-01
    Z_222     Z_402     -8.7984079483516919e-01
    Z_222     Z_412     -8.6348112156976886e-01
    Z_222     Z_422     -9.8272970348459976e-01
    Z_222     Z_502     -1.0159814530297784e+00
    Z_222     Z_512     -1.0573422963154744e+00
    Z_222     Z_522     -1.0834836218322921e+00
    Z_223     Z_303     -8.7984079483516919e-01
    Z_223     Z_313     -8.6348112156976886e-01
    Z_223     Z_403     -8.7984079483516919e-01
    Z_223     Z_413     -8.6348112156976886e-01
    Z_223     Z_423     -9.8272970348459976e-01
    Z_223     Z_503     -1.0159814530297784e+00
    Z_223     Z_513     -1.0573422963154744e+00
    Z_223     Z_523     -1.0834836218322921e+00
    Z_300     Z_400     1.1920928955078125e-07
    Z_300     Z_410     -9.7810417413711548e-01
    Z_300     Z_420     -9.9694738190392829e-01
    Z_300     Z_500     -6.7964124679565430e-01
    Z_300     Z_510     -8.3297336101531982e-01
    Z_300     Z_520     -1.0790457755229137e+00
    Z_301     Z_401     1.1920928955078125e-07
    Z_301     Z_411     -9.7810417413711548e-01
    Z_301     Z_421     -9.9694738190392829e-01
    Z_301     Z_501     -6.7964124679565430e-01
    Z_301     Z_511     -8.3297336101531982e-01
    Z_301     Z_521     -1.0790457755229137e+00
    Z_302     Z_402     1.1920928955078125e-07
    Z_302     Z_412     -9.7810417413711548e-01
    Z_302     Z_422     -9.9694738190392829e-01
    Z_302     Z_502     -6.7964124679565430e-01
    Z_302     Z_512     -8.3297336101531982e-01
    Z_302     Z_522     -1.0790457755229137e+00
    Z_303     Z_403     1.1920928955078125e-07
    Z_303     Z_413     -9.7810417413711548e-01
    Z_303     Z_423     -9.9694738190392829e-01
    Z_303     Z_503     -6.7964124679565430e-01
    Z_303     Z_513     -8.3297336101531982e-01
    Z_303     Z_523     -1.0790457755229137e+00
    Z_310     Z_400     -9.7810417413711548e-01
    Z_310     Z_420     -9.3139486855433806e-01
    Z_310     Z_500     -8.9973002672195435e-01
    Z_310     Z_510     -9.0562760829925537e-01
    Z_310     Z_520     -9.8397843981756306e-01
    Z_311     Z_401     -9.7810417413711548e-01
    Z_311     Z_421     -9.3139486855433806e-01
    Z_311     Z_501     -8.9973002672195435e-01
    Z_311     Z_511     -9.0562760829925537e-01
    Z_311     Z_521     -9.8397843981756306e-01
    Z_312     Z_402     -9.7810417413711548e-01
    Z_312     Z_422     -9.3139486855433806e-01
    Z_312     Z_502     -8.9973002672195435e-01
    Z_312     Z_512     -9.0562760829925537e-01
    Z_312     Z_522     -9.8397843981756306e-01
    Z_313     Z_403     -9.7810417413711548e-01
    Z_313     Z_423     -9.3139486855433806e-01
    Z_313     Z_503     -8.9973002672195435e-01
    Z_313     Z_513     -9.0562760829925537e-01
    Z_313     Z_523     -9.8397843981756306e-01
    Z_400     Z_500     -6.7964124679565430e-01
    Z_400     Z_510     -8.3297336101531982e-01
    Z_400     Z_520     -1.0790457755229137e+00
    Z_401     Z_501     -6.7964124679565430e-01
    Z_401     Z_511     -8.3297336101531982e-01
    Z_401     Z_521     -1.0790457755229137e+00
    Z_402     Z_502     -6.7964124679565430e-01
    Z_402     Z_512     -8.3297336101531982e-01
    Z_402     Z_522     -1.0790457755229137e+00
    Z_403     Z_503     -6.7964124679565430e-01
    Z_403     Z_513     -8.3297336101531982e-01
    Z_403     Z_523     -1.0790457755229137e+00
    Z_410     Z_500     -8.9973002672195435e-01
    Z_410     Z_510     -9.0562760829925537e-01
    Z_410     Z_520     -9.8397843981756306e-01
    Z_411     Z_501     -8.9973002672195435e-01
    Z_411     Z_511     -9.0562760829925537e-01
    Z_411     Z_521     -9.8397843981756306e-01
    Z_412     Z_502     -8.9973002672195435e-01
    Z_412     Z_512     -9.0562760829925537e-01
    Z_412     Z_522     -9.8397843981756306e-01
    Z_413     Z_503     -8.9973002672195435e-01
    Z_413     Z_513     -9.0562760829925537e-01
    Z_413     Z_523     -9.8397843981756306e-01
    Z_420     Z_500     -1.0360677285190054e+00
    Z_420     Z_510     -1.1105463022085496e+00
    Z_420     Z_520     -1.0058936561838911e+00
    Z_421     Z_501     -1.0360677285190054e+00
    Z_421     Z_511     -1.1105463022085496e+00
    Z_421     Z_521     -1.0058936561838911e+00
    Z_422     Z_502     -1.0360677285190054e+00
    Z_422     Z_512     -1.1105463022085496e+00
    Z_422     Z_522     -1.0058936561838911e+00
    Z_423     Z_503     -1.0360677285190054e+00
    Z_423     Z_513     -1.1105463022085496e+00
    Z_423     Z_523     -1.0058936561838911e+00
ENDATA
